1 1 2 0
1 1 3 0
1 1 -4 0
1 -1 5 0
1 1 -6 0
1 1 -7 0
1 -2 8 0
1 -2 -3 0
1 -2 -1 0
1 -2 5 0
1 2 -7 0
1 -9 10 0
1 9 -11 0
1 -9 -3 0
1 -9 -4 0
1 9 -12 0
1 11 13 0
1 11 10 0
1 11 14 0
1 -11 3 0
1 11 4 0
1 -11 -15 0
1 11 -12 0
1 11 9 0
1 11 5 0
1 -11 -7 0
1 -4 -16 0
1 4 -17 0
1 4 2 0
1 4 18 0
1 4 -19 0
1 4 -20 0
1 -4 21 0
1 -4 -9 0
1 -4 -1 0
1 -4 7 0
1 -7 -16 0
1 7 22 0
1 -7 2 0
1 7 -4 0
1 7 20 0
1 -7 21 0
1 7 9 0
1 3 -23 0
1 3 -11 0
1 -3 -2 0
1 -3 -24 0
1 -3 25 0
1 -3 -26 0
1 3 9 0
1 3 -5 0
1 -5 -27 0
1 5 -11 0
1 -5 2 0
1 5 -3 0
1 -5 -19 0
1 -5 25 0
1 5 1 0
1 5 -28 0
1 21 13 0
1 21 10 0
1 21 -17 0
1 21 15 0
1 21 12 0
1 -21 -26 0
1 -21 -7 0
1 17 -13 0
1 -17 -23 0
1 -17 4 0
1 17 15 0
1 17 -21 0
1 17 -7 0
1 -20 -13 0
1 -20 10 0
1 -20 -22 0
1 -20 29 0
1 20 30 0
1 20 -4 0
1 -20 -15 0
1 -20 -12 0
1 20 31 0
1 -20 -25 0
1 20 -32 0
1 20 7 0
1 22 13 0
1 22 -10 0
1 22 -29 0
1 -22 27 0
1 22 30 0
1 -22 -4 0
1 -22 15 0
1 22 12 0
1 -22 20 0
1 22 -31 0
1 -12 33 0
1 -12 -34 0
1 12 10 0
1 -12 -22 0
1 -12 -17 0
1 12 -11 0
1 12 35 0
1 12 36 0
1 -12 37 0
1 12 20 0
1 12 21 0
1 -12 -9 0
1 -12 38 0
1 -10 33 0
1 -10 34 0
1 10 -39 0
1 -10 -22 0
1 -10 17 0
1 -10 11 0
1 -10 -35 0
1 10 36 0
1 -10 40 0
1 10 -12 0
1 10 20 0
1 -10 21 0
1 -10 9 0
1 -15 13 0
1 15 41 0
1 -15 16 0
1 15 -22 0
1 -15 17 0
1 -15 -11 0
1 15 -35 0
1 15 42 0
1 -15 -19 0
1 -15 20 0
1 -15 -21 0
1 15 -9 0
1 15 -38 0
1 -13 -41 0
1 13 16 0
1 -13 -22 0
1 -13 17 0
1 -13 11 0
1 13 -15 0
1 13 42 0
1 13 19 0
1 13 20 0
1 -13 21 0
1 13 -9 0
1 13 38 0
1 -40 -34 0
1 40 10 0
1 -40 29 0
1 40 -30 0
1 -40 -12 0
1 -40 -19 0
1 -40 -31 0
1 40 32 0
1 -34 10 0
1 34 16 0
1 34 29 0
1 -34 30 0
1 -34 -40 0
1 34 12 0
1 34 -31 0
1 34 32 0
1 36 -33 0
1 36 10 0
1 -36 29 0
1 36 30 0
1 36 42 0
1 36 -12 0
1 -36 -31 0
1 -36 32 0
1 33 41 0
1 -33 -10 0
1 33 -29 0
1 33 -30 0
1 -33 36 0
1 33 -12 0
1 -33 31 0
1 -33 -32 0
1 32 -33 0
1 32 -34 0
1 32 22 0
1 32 30 0
1 -32 43 0
1 -32 36 0
1 -32 -40 0
1 -32 20 0
1 32 -44 0
1 -32 45 0
1 30 33 0
1 -30 -34 0
1 30 22 0
1 30 46 0
1 30 43 0
1 -30 -36 0
1 30 20 0
1 -30 -32 0
1 -30 45 0
1 31 33 0
1 -31 34 0
1 -31 -22 0
1 -31 -29 0
1 -31 -43 0
1 -31 -47 0
1 31 35 0
1 -31 36 0
1 31 40 0
1 31 -20 0
1 31 48 0
1 31 45 0
1 31 49 0
1 31 38 0
1 29 -34 0
1 -29 -43 0
1 -29 -47 0
1 29 36 0
1 -29 40 0
1 29 -45 0
1 29 -38 0
1 6 50 0
1 -6 51 0
1 -6 -52 0
1 -6 -1 0
1 8 -51 0
1 8 2 0
1 -8 -53 0
1 -8 54 0
1 8 52 0
1 -8 -6 0
1 55 50 0
1 55 -51 0
1 -55 -56 0
1 -55 -57 0
1 55 -14 0
1 55 54 0
1 -55 58 0
1 -55 -59 0
1 14 -50 0
1 -14 51 0
1 14 -56 0
1 14 57 0
1 14 54 0
1 -14 52 0
1 -14 58 0
1 -51 -60 0
1 -51 61 0
1 -51 23 0
1 51 14 0
1 -51 62 0
1 51 -25 0
1 -51 -26 0
1 -51 55 0
1 -51 6 0
1 -52 -51 0
1 52 27 0
1 -52 23 0
1 52 -8 0
1 -52 -63 0
1 -52 -62 0
1 52 25 0
1 52 -26 0
1 -52 -6 0
1 -50 -64 0
1 -50 -60 0
1 50 14 0
1 -50 -8 0
1 50 -54 0
1 50 62 0
1 -50 65 0
1 50 55 0
1 -50 -6 0
1 54 50 0
1 -54 -60 0
1 54 66 0
1 -54 -67 0
1 54 14 0
1 -54 8 0
1 54 62 0
1 54 -65 0
1 54 68 0
1 -54 -55 0
1 -54 6 0
1 26 51 0
1 26 -56 0
1 26 -23 0
1 -26 57 0
1 26 -3 0
1 -26 -69 0
1 -26 -58 0
1 26 -5 0
1 -23 -51 0
1 23 -56 0
1 -23 17 0
1 -23 57 0
1 -23 -67 0
1 23 3 0
1 23 69 0
1 23 -58 0
1 23 26 0
1 -23 -5 0
1 -25 -51 0
1 25 27 0
1 25 -56 0
1 25 57 0
1 -25 -70 0
1 -25 3 0
1 25 52 0
1 -25 -69 0
1 -25 -65 0
1 -25 71 0
1 -25 5 0
1 -27 -58 0
1 -27 51 0
1 27 22 0
1 -27 -56 0
1 27 66 0
1 27 -57 0
1 -27 -72 0
1 27 -3 0
1 27 52 0
1 27 69 0
1 27 -25 0
1 -27 73 0
1 27 -71 0
1 27 -5 0
1 -57 58 0
1 57 -41 0
1 -57 16 0
1 57 23 0
1 -57 -74 0
1 -57 -14 0
1 57 75 0
1 57 19 0
1 -57 -25 0
1 -57 26 0
1 -57 55 0
1 58 -76 0
1 58 41 0
1 -58 -16 0
1 -58 -23 0
1 58 -57 0
1 -58 14 0
1 58 75 0
1 -58 19 0
1 -58 25 0
1 58 -77 0
1 58 26 0
1 -58 -55 0
1 -56 60 0
1 -56 78 0
1 56 23 0
1 -56 75 0
1 56 79 0
1 -56 69 0
1 -56 25 0
1 -56 -26 0
1 56 55 0
1 -69 76 0
1 69 80 0
1 69 60 0
1 -69 -27 0
1 -69 23 0
1 69 14 0
1 -69 -75 0
1 -69 79 0
1 -69 -62 0
1 -69 25 0
1 -69 81 0
1 -69 55 0
1 -19 57 0
1 19 -72 0
1 -19 70 0
1 19 -4 0
1 -19 15 0
1 -19 -40 0
1 19 -62 0
1 19 58 0
1 -19 -73 0
1 -19 71 0
1 -16 13 0
1 16 -34 0
1 -16 57 0
1 -16 70 0
1 -16 3 0
1 -16 4 0
1 16 19 0
1 -16 73 0
1 16 -5 0
1 -42 -82 0
1 42 13 0
1 -42 -41 0
1 42 57 0
1 -42 70 0
1 -42 24 0
1 42 -18 0
1 -42 79 0
1 -42 58 0
1 42 -73 0
1 -42 -71 0
1 -42 28 0
1 41 -82 0
1 41 33 0
1 41 80 0
1 -41 -57 0
1 41 -72 0
1 41 -70 0
1 41 -24 0
1 41 -18 0
1 -41 15 0
1 -41 42 0
1 -41 -58 0
1 41 73 0
1 41 -71 0
1 41 28 0
1 -70 -16 0
1 70 -27 0
1 -70 -83 0
1 70 -47 0
1 -70 84 0
1 70 -35 0
1 -70 -42 0
1 70 -19 0
1 70 25 0
1 70 -71 0
1 -70 85 0
1 70 -49 0
1 70 -38 0
1 71 41 0
1 71 -16 0
1 71 27 0
1 -71 -83 0
1 -71 35 0
1 71 -86 0
1 -71 -42 0
1 71 -19 0
1 71 -25 0
1 71 -85 0
1 71 -49 0
1 71 38 0
1 72 76 0
1 -72 -41 0
1 -72 -16 0
1 -72 27 0
1 -72 87 0
1 -72 83 0
1 -72 -75 0
1 -72 42 0
1 72 -25 0
1 72 73 0
1 73 76 0
1 73 -41 0
1 73 27 0
1 73 72 0
1 73 83 0
1 73 88 0
1 73 -42 0
1 -73 19 0
1 -73 89 0
1 -73 -85 0
1 -35 -13 0
1 35 -10 0
1 35 -29 0
1 -35 70 0
1 -35 -24 0
1 35 75 0
1 -35 -15 0
1 -35 18 0
1 -35 12 0
1 -35 31 0
1 -38 76 0
1 38 13 0
1 38 82 0
1 -38 10 0
1 -38 -70 0
1 -38 -24 0
1 38 -35 0
1 -38 18 0
1 38 15 0
1 -38 -12 0
1 -38 71 0
1 38 -28 0
1 -47 -90 0
1 47 -39 0
1 47 -70 0
1 -47 88 0
1 47 18 0
1 47 91 0
1 -47 -37 0
1 -47 31 0
1 -47 -71 0
1 -47 -49 0
1 47 -28 0
1 -49 -82 0
1 49 90 0
1 49 -39 0
1 -49 29 0
1 49 70 0
1 49 24 0
1 -49 18 0
1 49 -91 0
1 49 37 0
1 -49 31 0
1 49 28 0
1 49 71 0
1 49 -92 0
1 18 -82 0
1 -18 93 0
1 -18 -43 0
1 18 -47 0
1 18 -35 0
1 18 94 0
1 -18 95 0
1 -18 45 0
1 -18 49 0
1 18 -38 0
1 -82 96 0
1 -82 41 0
1 -82 -93 0
1 82 -97 0
1 82 -47 0
1 82 35 0
1 -82 -7 0
1 82 -98 0
1 -82 -95 0
1 82 -38 0
1 24 41 0
1 -24 93 0
1 -24 -99 0
1 24 -83 0
1 24 -47 0
1 24 -3 0
1 24 35 0
1 -24 100 0
1 24 -42 0
1 24 98 0
1 -24 -101 0
1 -24 -49 0
1 24 28 0
1 24 -38 0
1 -28 41 0
1 28 -93 0
1 28 99 0
1 28 83 0
1 28 47 0
1 28 24 0
1 -28 42 0
1 28 5 0
1 28 -98 0
1 28 -85 0
1 28 -49 0
1 28 102 0
1 28 38 0
1 -43 -82 0
1 43 -90 0
1 43 -29 0
1 -43 39 0
1 -43 -30 0
1 -43 -83 0
1 -43 18 0
1 -43 31 0
1 43 -32 0
1 43 -45 0
1 -45 -82 0
1 45 39 0
1 -45 29 0
1 45 -30 0
1 45 43 0
1 45 -91 0
1 -45 37 0
1 -45 -31 0
1 -45 -32 0
1 -45 85 0
1 -97 82 0
1 -97 -90 0
1 97 -39 0
1 97 -103 0
1 -97 -95 0
1 -97 -46 0
1 -97 -99 0
1 97 18 0
1 -97 91 0
1 -97 -37 0
1 -97 -44 0
1 95 82 0
1 -95 90 0
1 95 -39 0
1 -95 -103 0
1 -95 -46 0
1 -95 -18 0
1 95 -91 0
1 -95 -37 0
1 -95 48 0
1 -95 -101 0
1 37 104 0
1 -37 -97 0
1 -37 -43 0
1 -37 47 0
1 -37 -105 0
1 37 -12 0
1 -37 106 0
1 37 -107 0
1 -37 -108 0
1 37 45 0
1 -39 10 0
1 39 109 0
1 39 110 0
1 -39 104 0
1 -39 97 0
1 -39 -43 0
1 -39 47 0
1 39 105 0
1 39 106 0
1 39 37 0
1 39 108 0
1 39 95 0
1 -39 -45 0
1 39 -49 0
1 -91 90 0
1 91 -109 0
1 -91 93 0
1 91 43 0
1 91 15 0
1 91 111 0
1 -91 98 0
1 91 95 0
1 91 -45 0
1 -91 49 0
1 -90 -13 0
1 -90 112 0
1 90 109 0
1 90 -113 0
1 -90 93 0
1 90 -97 0
1 -90 43 0
1 90 105 0
1 90 -91 0
1 -90 -111 0
1 90 -95 0
1 -114 -39 0
1 114 -46 0
1 -114 48 0
1 -114 -37 0
1 -114 -108 0
1 114 44 0
1 -108 39 0
1 -108 -103 0
1 108 -114 0
1 -108 46 0
1 -108 37 0
1 108 48 0
1 -108 98 0
1 108 44 0
1 -104 -39 0
1 104 103 0
1 -104 -46 0
1 -104 106 0
1 -104 -37 0
1 104 -48 0
1 -104 44 0
1 106 -104 0
1 106 -103 0
1 106 -46 0
1 -106 37 0
1 -106 -111 0
1 -106 48 0
1 -106 -44 0
1 44 115 0
1 -44 104 0
1 44 46 0
1 44 -97 0
1 44 116 0
1 44 106 0
1 44 -108 0
1 44 -32 0
1 -44 95 0
1 44 117 0
1 46 115 0
1 46 -30 0
1 46 114 0
1 46 -97 0
1 46 -116 0
1 -46 106 0
1 -46 -108 0
1 -46 -95 0
1 -46 44 0
1 -48 -115 0
1 -48 -118 0
1 48 -109 0
1 -48 -114 0
1 -48 -116 0
1 -48 119 0
1 -48 105 0
1 48 -106 0
1 -48 31 0
1 -48 -108 0
1 48 -120 0
1 -48 95 0
1 103 118 0
1 103 -109 0
1 -103 29 0
1 103 104 0
1 103 121 0
1 103 -114 0
1 103 97 0
1 103 48 0
1 -103 105 0
1 -103 -106 0
1 103 -108 0
1 -103 95 0
1 -122 123 0
1 -122 -124 0
1 122 -53 0
1 -122 125 0
1 122 -126 0
1 -53 123 0
1 -53 -124 0
1 53 -8 0
1 -53 -125 0
1 -53 -126 0
1 53 -122 0
1 -59 -123 0
1 59 -124 0
1 59 127 0
1 -59 128 0
1 -59 129 0
1 59 125 0
1 -59 126 0
1 -59 -130 0
1 -59 55 0
1 -59 -131 0
1 -128 123 0
1 128 -124 0
1 128 -127 0
1 128 -14 0
1 -128 -129 0
1 128 -125 0
1 -128 131 0
1 -128 126 0
1 -128 -59 0
1 -126 -66 0
1 126 -124 0
1 126 128 0
1 126 65 0
1 -126 132 0
1 -126 -59 0
1 -126 122 0
1 124 126 0
1 124 66 0
1 124 133 0
1 -124 -67 0
1 124 128 0
1 -124 -53 0
1 -124 -65 0
1 -124 -68 0
1 124 -59 0
1 -124 -122 0
1 125 53 0
1 -125 -59 0
1 -125 122 0
1 -123 134 0
1 123 -53 0
1 123 125 0
1 -123 -59 0
1 -123 122 0
1 68 50 0
1 68 -67 0
1 68 127 0
1 -68 54 0
1 -68 126 0
1 68 -26 0
1 -68 -131 0
1 -67 50 0
1 67 23 0
1 -67 -127 0
1 -67 129 0
1 67 -130 0
1 -67 126 0
1 -67 -131 0
1 65 -135 0
1 65 -50 0
1 -65 -66 0
1 65 124 0
1 -65 127 0
1 65 136 0
1 65 54 0
1 65 -25 0
1 65 126 0
1 65 131 0
1 65 137 0
1 66 135 0
1 66 50 0
1 -66 -27 0
1 -66 -127 0
1 -66 -129 0
1 -66 65 0
1 -66 130 0
1 66 131 0
1 -66 137 0
1 131 -138 0
1 -131 -80 0
1 -131 60 0
1 131 66 0
1 -131 -67 0
1 131 -128 0
1 131 129 0
1 -131 -139 0
1 131 79 0
1 -131 62 0
1 -131 -65 0
1 131 68 0
1 -131 -59 0
1 -131 140 0
1 -129 138 0
1 -129 80 0
1 129 -60 0
1 129 66 0
1 -129 -67 0
1 129 128 0
1 -129 141 0
1 129 139 0
1 129 -79 0
1 129 62 0
1 -129 131 0
1 -129 -65 0
1 -129 -68 0
1 -129 59 0
1 -130 139 0
1 -130 142 0
1 -130 -59 0
1 -127 -138 0
1 -127 -67 0
1 127 -128 0
1 127 130 0
1 127 -139 0
1 -127 65 0
1 -127 -59 0
1 -62 -135 0
1 -62 -50 0
1 -62 -51 0
1 -62 -136 0
1 62 -143 0
1 -62 -54 0
1 62 52 0
1 -62 -131 0
1 62 -137 0
1 -60 -135 0
1 60 -50 0
1 -60 -16 0
1 -60 51 0
1 -60 56 0
1 60 -129 0
1 60 136 0
1 -60 -143 0
1 60 69 0
1 60 62 0
1 60 -137 0
1 79 135 0
1 -79 80 0
1 79 61 0
1 -79 -129 0
1 -79 136 0
1 -79 -143 0
1 79 -144 0
1 -79 42 0
1 79 63 0
1 -79 -131 0
1 80 135 0
1 -80 41 0
1 80 64 0
1 80 -61 0
1 80 56 0
1 80 -129 0
1 80 -136 0
1 -80 144 0
1 80 79 0
1 80 69 0
1 80 -63 0
1 80 131 0
1 80 137 0
1 -135 76 0
1 -135 145 0
1 135 60 0
1 -135 -66 0
1 135 146 0
1 -135 88 0
1 -135 -143 0
1 135 -75 0
1 -135 -79 0
1 135 62 0
1 -135 -147 0
1 143 -76 0
1 143 -66 0
1 143 146 0
1 -143 -88 0
1 -143 -148 0
1 143 75 0
1 143 79 0
1 143 62 0
1 143 -65 0
1 -143 147 0
1 143 92 0
1 -137 138 0
1 -137 -80 0
1 -137 -60 0
1 -137 66 0
1 -137 -136 0
1 -137 146 0
1 137 -149 0
1 137 62 0
1 137 147 0
1 -137 150 0
1 -136 138 0
1 136 80 0
1 136 60 0
1 -136 -66 0
1 136 -146 0
1 -136 151 0
1 136 139 0
1 136 -79 0
1 -136 -62 0
1 -136 -65 0
1 136 147 0
1 136 137 0
1 136 150 0
1 -75 76 0
1 -75 135 0
1 75 64 0
1 -75 -61 0
1 75 56 0
1 75 -57 0
1 -75 72 0
1 -75 143 0
1 75 -139 0
1 -75 144 0
1 -75 63 0
1 75 69 0
1 -75 58 0
1 -75 73 0
1 76 135 0
1 -76 64 0
1 -76 -61 0
1 76 -56 0
1 76 57 0
1 76 -72 0
1 -76 -143 0
1 -76 75 0
1 -76 -144 0
1 76 63 0
1 -76 58 0
1 76 -73 0
1 -76 -38 0
1 -88 -135 0
1 88 -64 0
1 -88 -61 0
1 -88 74 0
1 -88 -72 0
1 88 -47 0
1 -88 143 0
1 -88 -149 0
1 -88 144 0
1 88 -63 0
1 88 -81 0
1 88 92 0
1 92 -135 0
1 -92 -64 0
1 -92 61 0
1 92 -78 0
1 92 74 0
1 92 -63 0
1 -92 -81 0
1 -92 73 0
1 -92 -49 0
1 -92 150 0
1 61 -80 0
1 61 -152 0
1 -61 153 0
1 61 -99 0
1 -61 -83 0
1 -61 88 0
1 61 79 0
1 61 -63 0
1 61 -154 0
1 61 101 0
1 61 85 0
1 -61 -92 0
1 63 -76 0
1 63 80 0
1 -63 -61 0
1 -63 153 0
1 63 -99 0
1 63 -83 0
1 63 -88 0
1 63 -75 0
1 63 -79 0
1 -63 -155 0
1 63 -154 0
1 63 -101 0
1 63 92 0
1 64 -76 0
1 64 50 0
1 64 80 0
1 -64 -156 0
1 -64 153 0
1 -64 -157 0
1 -64 -75 0
1 -64 -144 0
1 -64 -79 0
1 -64 158 0
1 64 -147 0
1 64 92 0
1 144 -80 0
1 -144 -153 0
1 144 157 0
1 -144 146 0
1 144 88 0
1 144 75 0
1 -144 54 0
1 144 -159 0
1 -144 79 0
1 -144 154 0
1 144 -147 0
1 -83 -61 0
1 83 78 0
1 -83 -74 0
1 83 72 0
1 -83 -70 0
1 83 -146 0
1 83 63 0
1 -83 77 0
1 -83 -73 0
1 -83 -71 0
1 83 -85 0
1 83 28 0
1 85 -61 0
1 -85 78 0
1 85 -74 0
1 -85 72 0
1 85 -71 0
1 85 -83 0
1 85 -63 0
1 85 81 0
1 -85 77 0
1 85 -73 0
1 -85 -147 0
1 85 28 0
1 -99 -89 0
1 99 -78 0
1 99 -74 0
1 99 97 0
1 99 87 0
1 -99 157 0
1 99 -84 0
1 99 -63 0
1 -99 -81 0
1 -99 77 0
1 99 -101 0
1 -99 -86 0
1 -99 -28 0
1 101 -61 0
1 101 -78 0
1 -101 74 0
1 -101 -87 0
1 -101 24 0
1 101 63 0
1 -101 81 0
1 -101 77 0
1 -101 89 0
1 101 158 0
1 101 86 0
1 101 -28 0
1 -74 77 0
1 74 -160 0
1 -74 -113 0
1 -74 99 0
1 74 83 0
1 74 88 0
1 74 -161 0
1 74 98 0
1 74 101 0
1 -74 -85 0
1 -74 -92 0
1 -77 -160 0
1 -77 -93 0
1 77 74 0
1 -77 -99 0
1 77 83 0
1 -77 88 0
1 77 161 0
1 77 -111 0
1 77 -58 0
1 77 -162 0
1 77 101 0
1 -77 85 0
1 77 92 0
1 -78 -160 0
1 78 56 0
1 -78 163 0
1 78 -153 0
1 -78 99 0
1 -78 -83 0
1 -78 88 0
1 78 -161 0
1 78 -81 0
1 78 -164 0
1 -78 101 0
1 -78 -85 0
1 -78 92 0
1 -81 -160 0
1 81 -165 0
1 -81 -78 0
1 81 -166 0
1 81 -153 0
1 -81 -99 0
1 81 -83 0
1 81 -161 0
1 81 69 0
1 81 -164 0
1 81 154 0
1 -81 -101 0
1 -81 85 0
1 81 -92 0
1 -93 -82 0
1 -93 -77 0
1 93 -114 0
1 93 -74 0
1 -93 -87 0
1 93 -84 0
1 93 -24 0
1 93 -18 0
1 -93 -89 0
1 -93 -86 0
1 93 28 0
1 98 82 0
1 98 -90 0
1 -98 93 0
1 98 -74 0
1 98 87 0
1 98 -84 0
1 -98 -18 0
1 -98 91 0
1 98 108 0
1 98 -77 0
1 -98 154 0
1 98 -89 0
1 -98 86 0
1 -98 28 0
1 -113 -90 0
1 -113 -166 0
1 -113 -74 0
1 -113 87 0
1 113 -84 0
1 113 -100 0
1 -113 -91 0
1 -113 77 0
1 113 89 0
1 113 86 0
1 113 -102 0
1 111 96 0
1 111 90 0
1 -111 113 0
1 -111 -74 0
1 111 -84 0
1 111 -100 0
1 -111 -94 0
1 -111 -106 0
1 111 -89 0
1 111 -86 0
1 -111 -102 0
1 84 -167 0
1 84 118 0
1 84 -109 0
1 84 93 0
1 -84 99 0
1 -84 70 0
1 84 -168 0
1 -84 119 0
1 -84 -105 0
1 -84 -111 0
1 84 -101 0
1 -84 -86 0
1 86 -167 0
1 86 118 0
1 -86 -109 0
1 86 -113 0
1 86 -93 0
1 86 -99 0
1 86 -84 0
1 86 168 0
1 86 -119 0
1 86 105 0
1 -86 -111 0
1 86 98 0
1 86 101 0
1 -86 -169 0
1 87 167 0
1 87 -170 0
1 87 113 0
1 -87 89 0
1 -87 -99 0
1 87 -171 0
1 -87 -172 0
1 -87 111 0
1 87 -98 0
1 -87 -101 0
1 89 -167 0
1 89 170 0
1 89 -160 0
1 -89 -113 0
1 -89 93 0
1 89 -99 0
1 89 -87 0
1 -89 -168 0
1 89 -172 0
1 89 161 0
1 -89 98 0
1 -89 -101 0
1 -89 173 0
1 -109 -39 0
1 -109 160 0
1 109 103 0
1 109 84 0
1 -109 -100 0
1 109 -105 0
1 109 91 0
1 -109 37 0
1 -109 48 0
1 -109 -86 0
1 -109 -102 0
1 -105 109 0
1 -105 39 0
1 105 103 0
1 -105 -100 0
1 105 94 0
1 -105 -91 0
1 -105 161 0
1 -105 37 0
1 105 -48 0
1 105 -86 0
1 -118 -96 0
1 -118 -170 0
1 -118 -110 0
1 118 -103 0
1 118 -84 0
1 118 -94 0
1 -118 -174 0
1 -118 48 0
1 118 -86 0
1 118 -102 0
1 -119 -118 0
1 119 110 0
1 -119 -103 0
1 -119 -100 0
1 -119 -172 0
1 -119 94 0
1 119 174 0
1 119 48 0
1 119 -102 0
1 -94 115 0
1 94 -96 0
1 94 -118 0
1 -94 -113 0
1 -94 -175 0
1 94 -116 0
1 -94 -18 0
1 94 -105 0
1 -94 -111 0
1 -94 176 0
1 -96 -82 0
1 -96 -118 0
1 96 -175 0
1 96 -177 0
1 96 116 0
1 -96 -119 0
1 -96 -105 0
1 -96 111 0
1 -96 -176 0
1 100 -167 0
1 -100 -118 0
1 100 -109 0
1 100 -113 0
1 -100 175 0
1 -100 178 0
1 100 -24 0
1 -100 168 0
1 100 -119 0
1 100 -105 0
1 -100 111 0
1 100 179 0
1 100 -102 0
1 100 -180 0
1 102 167 0
1 102 -118 0
1 102 -109 0
1 -102 113 0
1 -102 175 0
1 102 168 0
1 -102 -119 0
1 102 100 0
1 -102 105 0
1 -102 111 0
1 102 179 0
1 102 28 0
1 102 -180 0
1 -115 96 0
1 115 112 0
1 115 110 0
1 115 103 0
1 115 46 0
1 115 -116 0
1 115 174 0
1 -115 -107 0
1 -115 -48 0
1 -115 44 0
1 -116 -115 0
1 -116 96 0
1 116 112 0
1 -116 46 0
1 -116 94 0
1 116 -174 0
1 -116 -107 0
1 -116 -48 0
1 -116 -44 0
1 176 -96 0
1 176 -112 0
1 176 110 0
1 176 -121 0
1 -176 181 0
1 176 174 0
1 176 107 0
1 176 -120 0
1 -176 117 0
1 -177 96 0
1 -177 112 0
1 -177 -110 0
1 177 -121 0
1 177 -181 0
1 177 -178 0
1 177 -94 0
1 177 174 0
1 -177 107 0
1 177 -120 0
1 -177 176 0
1 107 -115 0
1 -107 -118 0
1 -107 -110 0
1 -107 -182 0
1 107 183 0
1 107 -177 0
1 107 116 0
1 -107 37 0
1 -107 184 0
1 -107 185 0
1 -107 176 0
1 110 -115 0
1 110 -118 0
1 110 39 0
1 110 182 0
1 -110 177 0
1 -110 107 0
1 110 184 0
1 -110 185 0
1 110 176 0
1 174 118 0
1 -174 -112 0
1 -174 -186 0
1 -174 177 0
1 -174 116 0
1 -174 119 0
1 174 91 0
1 174 -187 0
1 -112 115 0
1 112 118 0
1 112 90 0
1 112 -186 0
1 -112 -177 0
1 -112 116 0
1 -112 119 0
1 -112 174 0
1 112 -187 0
1 112 -179 0
1 -112 -176 0
1 -185 -110 0
1 185 121 0
1 -185 -181 0
1 185 -107 0
1 185 120 0
1 -185 117 0
1 -185 -179 0
1 -183 110 0
1 -183 -121 0
1 -183 -181 0
1 -183 175 0
1 183 120 0
1 -183 117 0
1 -183 185 0
1 -184 121 0
1 -184 182 0
1 184 -107 0
1 184 -120 0
1 -184 187 0
1 -182 -117 0
1 182 121 0
1 182 -107 0
1 -182 -184 0
1 -117 -182 0
1 -117 181 0
1 -117 183 0
1 117 177 0
1 117 -184 0
1 -117 -185 0
1 -181 -117 0
1 181 182 0
1 181 183 0
1 181 177 0
1 -181 184 0
1 181 185 0
1 120 -121 0
1 120 183 0
1 120 177 0
1 120 -48 0
1 120 176 0
1 -121 -103 0
1 121 182 0
1 121 -183 0
1 -121 -120 0
1 -121 -185 0
1 121 176 0
1 -139 133 0
1 139 127 0
1 139 129 0
1 -139 136 0
1 -139 -75 0
1 -139 132 0
1 139 -130 0
1 139 131 0
1 138 -76 0
1 -138 134 0
1 -138 133 0
1 138 127 0
1 -138 129 0
1 -138 130 0
1 -138 -131 0
1 -138 -137 0
1 -149 -134 0
1 149 188 0
1 -149 141 0
1 149 -136 0
1 -149 -88 0
1 149 -189 0
1 149 132 0
1 149 -142 0
1 -149 -150 0
1 -150 -134 0
1 150 133 0
1 -150 -188 0
1 150 -141 0
1 150 136 0
1 150 -149 0
1 150 -142 0
1 -150 -140 0
1 -150 -137 0
1 132 -138 0
1 132 -133 0
1 -132 157 0
1 -132 -190 0
1 -132 126 0
1 132 -150 0
1 -133 -124 0
1 -133 191 0
1 -133 146 0
1 -133 149 0
1 133 132 0
1 133 158 0
1 133 -147 0
1 133 -150 0
1 189 -138 0
1 189 -134 0
1 -189 149 0
1 189 125 0
1 -189 -192 0
1 189 150 0
1 -134 138 0
1 134 123 0
1 -134 -149 0
1 -134 -139 0
1 -134 189 0
1 134 150 0
1 -146 -135 0
1 -146 -64 0
1 146 -133 0
1 146 188 0
1 146 141 0
1 146 136 0
1 146 -143 0
1 146 144 0
1 146 132 0
1 146 -142 0
1 146 -140 0
1 146 -147 0
1 -147 135 0
1 147 -137 0
1 147 -64 0
1 -147 -133 0
1 -147 -188 0
1 -147 141 0
1 147 136 0
1 147 -146 0
1 -147 -143 0
1 147 144 0
1 -147 142 0
1 147 85 0
1 -147 140 0
1 -157 -145 0
1 157 64 0
1 -157 -133 0
1 157 -188 0
1 -157 -99 0
1 157 -141 0
1 -157 148 0
1 -157 144 0
1 -157 -142 0
1 157 -132 0
1 -157 158 0
1 -157 140 0
1 157 -193 0
1 -158 145 0
1 158 64 0
1 158 -133 0
1 -158 -157 0
1 -158 151 0
1 158 148 0
1 158 144 0
1 158 -132 0
1 -158 -101 0
1 -158 142 0
1 158 193 0
1 140 194 0
1 -140 166 0
1 140 -153 0
1 140 -141 0
1 -140 146 0
1 140 -149 0
1 -140 195 0
1 -140 -164 0
1 -140 -158 0
1 -140 131 0
1 -140 -147 0
1 -140 -196 0
1 140 -150 0
1 141 -194 0
1 141 -166 0
1 -141 153 0
1 141 -129 0
1 141 157 0
1 -141 197 0
1 -141 -195 0
1 -141 -164 0
1 141 -158 0
1 141 140 0
1 141 -147 0
1 -141 -150 0
1 -142 -194 0
1 -142 -188 0
1 142 157 0
1 142 146 0
1 142 130 0
1 142 149 0
1 142 195 0
1 142 158 0
1 -142 198 0
1 142 150 0
1 -188 -194 0
1 188 -127 0
1 -188 157 0
1 188 -146 0
1 188 -149 0
1 188 142 0
1 -188 158 0
1 -188 -147 0
1 -188 -150 0
1 153 145 0
1 153 64 0
1 153 -61 0
1 153 78 0
1 153 -141 0
1 153 151 0
1 -153 148 0
1 153 -144 0
1 153 -63 0
1 153 81 0
1 153 -154 0
1 153 140 0
1 153 193 0
1 154 -64 0
1 154 -61 0
1 -154 78 0
1 -154 -153 0
1 -154 -151 0
1 154 148 0
1 154 63 0
1 154 81 0
1 154 98 0
1 154 -140 0
1 -166 -145 0
1 -166 152 0
1 -166 78 0
1 -166 -113 0
1 166 -141 0
1 -166 151 0
1 -166 -148 0
1 166 159 0
1 166 -155 0
1 -166 -81 0
1 166 -164 0
1 -166 193 0
1 -164 -145 0
1 -164 156 0
1 -164 -152 0
1 -164 -78 0
1 164 -166 0
1 164 -141 0
1 -164 151 0
1 164 148 0
1 164 155 0
1 164 -81 0
1 164 -111 0
1 164 140 0
1 145 199 0
1 145 170 0
1 -145 -200 0
1 -145 -160 0
1 -145 166 0
1 -145 -153 0
1 145 157 0
1 145 148 0
1 145 201 0
1 145 172 0
1 145 161 0
1 145 -154 0
1 145 158 0
1 148 -145 0
1 -148 -199 0
1 -148 -170 0
1 -148 -160 0
1 148 166 0
1 148 -157 0
1 148 -143 0
1 148 -201 0
1 148 172 0
1 148 -202 0
1 -148 164 0
1 148 -158 0
1 -193 -203 0
1 193 199 0
1 -193 204 0
1 -193 194 0
1 193 -157 0
1 -193 -151 0
1 -193 201 0
1 -193 205 0
1 193 -195 0
1 -193 164 0
1 193 137 0
1 151 199 0
1 151 204 0
1 151 153 0
1 151 157 0
1 151 136 0
1 -151 -206 0
1 151 201 0
1 151 205 0
1 151 195 0
1 151 164 0
1 151 154 0
1 -151 -158 0
1 160 -145 0
1 160 109 0
1 -160 194 0
1 160 -78 0
1 -160 87 0
1 160 -148 0
1 -160 -159 0
1 160 161 0
1 -160 -77 0
1 -161 160 0
1 -161 -78 0
1 161 -87 0
1 161 148 0
1 -161 -105 0
1 -161 -159 0
1 161 195 0
1 161 81 0
1 161 -155 0
1 -161 -89 0
1 -170 -145 0
1 170 204 0
1 -170 156 0
1 -170 -152 0
1 170 -163 0
1 -170 -207 0
1 -170 -87 0
1 -170 -148 0
1 170 -172 0
1 170 -159 0
1 -170 -155 0
1 170 -165 0
1 -170 162 0
1 -170 89 0
1 172 -145 0
1 -172 -156 0
1 172 152 0
1 -172 163 0
1 -172 -207 0
1 -172 87 0
1 -172 -148 0
1 172 119 0
1 -172 -205 0
1 172 -159 0
1 -172 155 0
1 -172 -165 0
1 172 162 0
1 -172 89 0
1 152 -167 0
1 152 170 0
1 -152 160 0
1 -152 -166 0
1 -152 208 0
1 -152 178 0
1 -152 -168 0
1 -152 -172 0
1 -152 -161 0
1 152 -164 0
1 -155 -160 0
1 155 -152 0
1 -155 -166 0
1 -155 178 0
1 -155 172 0
1 -155 161 0
1 155 63 0
1 -156 209 0
1 156 -199 0
1 156 -170 0
1 -156 -64 0
1 156 160 0
1 156 -166 0
1 -156 208 0
1 156 210 0
1 -156 172 0
1 156 -159 0
1 156 -161 0
1 156 164 0
1 -159 -209 0
1 -159 -199 0
1 159 -156 0
1 -159 160 0
1 -159 166 0
1 159 -208 0
1 159 210 0
1 159 201 0
1 159 172 0
1 159 -144 0
1 159 -161 0
1 159 -164 0
1 167 -115 0
1 -167 -152 0
1 -167 163 0
1 -167 -207 0
1 -167 84 0
1 167 -168 0
1 -167 155 0
1 167 -165 0
1 167 -102 0
1 -168 167 0
1 -168 152 0
1 -168 163 0
1 -168 207 0
1 168 -87 0
1 -168 -84 0
1 -168 100 0
1 168 201 0
1 -168 155 0
1 -168 -165 0
1 168 89 0
1 -168 102 0
1 180 209 0
1 180 163 0
1 180 207 0
1 -180 -171 0
1 -180 178 0
1 -180 211 0
1 180 165 0
1 -180 173 0
1 -180 169 0
1 -178 152 0
1 178 163 0
1 178 -207 0
1 178 180 0
1 178 -177 0
1 -178 211 0
1 178 -155 0
1 -178 -165 0
1 -178 162 0
1 -178 -169 0
1 178 102 0
1 -207 -167 0
1 -207 170 0
1 -207 -162 0
1 -207 -74 0
1 -207 175 0
1 -207 -178 0
1 -207 172 0
1 -207 -179 0
1 162 -167 0
1 -162 207 0
1 162 -172 0
1 -162 77 0
1 -162 187 0
1 -162 -179 0
1 -162 180 0
1 163 167 0
1 -163 170 0
1 163 78 0
1 163 -208 0
1 163 178 0
1 -163 -168 0
1 -163 172 0
1 163 165 0
1 163 -212 0
1 -165 -167 0
1 165 170 0
1 -165 -178 0
1 -165 168 0
1 -165 -172 0
1 -165 81 0
1 165 212 0
1 -165 -180 0
1 179 -96 0
1 -179 112 0
1 179 207 0
1 -179 171 0
1 -179 -100 0
1 179 -94 0
1 179 174 0
1 -179 162 0
1 179 185 0
1 -179 -102 0
1 175 -96 0
1 175 207 0
1 -175 183 0
1 175 -171 0
1 -175 208 0
1 -175 100 0
1 -175 94 0
1 -175 -174 0
1 -175 169 0
1 -175 162 0
1 175 173 0
1 -175 179 0
1 175 -102 0
1 -187 112 0
1 -187 207 0
1 187 171 0
1 187 -211 0
1 187 -184 0
1 187 173 0
1 -187 -169 0
1 -186 -112 0
1 186 182 0
1 186 -207 0
1 -186 -171 0
1 -186 -174 0
1 -186 -162 0
1 186 -169 0
1 -211 175 0
1 211 84 0
1 -211 -178 0
1 -211 -169 0
1 211 187 0
1 -211 -179 0
1 211 180 0
1 -169 186 0
1 169 175 0
1 169 -178 0
1 169 -211 0
1 -169 187 0
1 169 86 0
1 -169 180 0
1 171 186 0
1 171 87 0
1 171 178 0
1 171 173 0
1 171 -187 0
1 171 -180 0
1 -173 -186 0
1 -173 -89 0
1 173 -187 0
1 173 179 0
1 173 -180 0
1 194 -160 0
1 194 213 0
1 -194 -191 0
1 -194 -188 0
1 194 -141 0
1 194 -151 0
1 -194 -195 0
1 194 192 0
1 -194 -190 0
1 -194 -140 0
1 194 193 0
1 195 -194 0
1 -195 -213 0
1 195 -191 0
1 -195 -141 0
1 195 -151 0
1 -195 -161 0
1 195 192 0
1 195 142 0
1 195 193 0
1 -204 214 0
1 204 205 0
1 -204 192 0
1 204 -190 0
1 204 198 0
1 204 -196 0
1 -205 -204 0
1 -205 -213 0
1 205 191 0
1 205 214 0
1 -205 197 0
1 205 151 0
1 -205 172 0
1 -205 192 0
1 -205 -190 0
1 -205 -196 0
1 205 -193 0
1 190 -209 0
1 -190 -199 0
1 190 204 0
1 -190 -194 0
1 -190 -191 0
1 190 -210 0
1 190 201 0
1 190 205 0
1 190 132 0
1 191 209 0
1 -191 199 0
1 191 204 0
1 -191 194 0
1 191 -133 0
1 191 -201 0
1 191 -205 0
1 -191 -195 0
1 -191 190 0
1 -192 -204 0
1 192 -194 0
1 -192 -213 0
1 192 205 0
1 192 -195 0
1 -192 189 0
1 -213 204 0
1 213 192 0
1 213 195 0
1 -199 167 0
1 199 -145 0
1 199 156 0
1 199 -191 0
1 -199 -214 0
1 199 -197 0
1 -199 -151 0
1 199 -201 0
1 199 -190 0
1 -199 198 0
1 -199 -196 0
1 201 145 0
1 201 199 0
1 201 156 0
1 201 191 0
1 201 -214 0
1 201 -197 0
1 201 -151 0
1 201 -168 0
1 201 148 0
1 201 159 0
1 -201 -198 0
1 -201 -196 0
1 201 193 0
1 209 203 0
1 209 -200 0
1 209 156 0
1 209 191 0
1 -209 -214 0
1 209 -197 0
1 209 -210 0
1 -209 202 0
1 209 190 0
1 209 -198 0
1 -209 196 0
1 -209 180 0
1 -210 -156 0
1 210 -191 0
1 210 214 0
1 210 197 0
1 -210 -202 0
1 -210 -159 0
1 -210 190 0
1 210 -198 0
1 -210 -196 0
1 -196 -209 0
1 196 -199 0
1 -196 204 0
1 196 208 0
1 196 -197 0
1 -196 201 0
1 -196 -212 0
1 -196 -140 0
1 197 209 0
1 197 -199 0
1 -197 -204 0
1 -197 -215 0
1 -197 141 0
1 197 210 0
1 -197 -201 0
1 -197 205 0
1 -197 196 0
1 198 209 0
1 -198 -199 0
1 -198 -204 0
1 198 -210 0
1 198 -205 0
1 -214 209 0
1 214 -199 0
1 214 -204 0
1 -214 188 0
1 -214 -210 0
1 214 205 0
1 214 -198 0
1 208 -203 0
1 208 200 0
1 -208 -156 0
1 -208 -175 0
1 -208 197 0
1 -208 206 0
1 -208 -202 0
1 208 -159 0
1 -208 -155 0
1 208 165 0
1 212 203 0
1 212 -200 0
1 212 -163 0
1 212 215 0
1 212 197 0
1 212 206 0
1 -212 202 0
1 212 -165 0
1 212 187 0
1 212 -196 0
1 -215 203 0
1 215 -200 0
1 -215 -163 0
1 215 186 0
1 215 -197 0
1 -215 206 0
1 -215 -165 0
1 -215 -212 0
1 215 196 0
1 200 -209 0
1 200 145 0
1 200 -215 0
1 -200 -208 0
1 -200 -210 0
1 200 202 0
1 -200 -212 0
1 202 -209 0
1 202 -200 0
1 -202 210 0
1 202 148 0
1 202 -212 0
1 203 -209 0
1 203 -215 0
1 203 208 0
1 -203 210 0
1 203 -206 0
1 -203 -212 0
1 203 193 0
1 -206 -209 0
1 -206 203 0
1 206 215 0
1 -206 208 0
1 -206 151 0
1 -206 -210 0
1 -206 -212 0
